c Random Network
p max    10      20
n         1  s
n        10  t
a       3       8      33
a       3       6      12
a       1       9       5
a       3       9      41
a       4       2      12
a       9       1      30
a       8       9      10
a       4       1      42
a      10       1      22
a       7       9      21
a       1       3       3
a       4       7      29
a       3       1      11
a       7       1       4
a       2       1      10
a       8       7      16
a       1       2      10
a       4       5       8
a       9       6      18
a       8       6      24
